false true true
presolving:
presolving (0 rounds: 0 fast, 0 medium, 0 exhaustive):
 0 deleted vars, 0 deleted constraints, 0 added constraints, 0 tightened bounds, 0 added holes, 0 changed sides, 0 changed coefficients
 0 implications, 0 cliques
presolved problem has 67 variables (67 bin, 0 int, 0 impl, 0 cont) and 56 constraints
     56 constraints of type <linear>
transformed objective value is always integral (scale: 1)
Presolving Time: 0.00

 time | node  | left  |LP iter|LP it/n|mem/heur|mdpt |vars |cons |rows |cuts |sepa|confs|strbr|  dualbound   | primalbound  |  gap   | compl. 
p 0.0s|     1 |     0 |     0 |     - |shiftand|   0 |  67 |  56 |  56 |   0 |  0 |   0 |   0 |      --      | 1.100000e+01 |    Inf | unknown
 time | node  | left  |LP iter|LP it/n|mem/heur|mdpt |vars |cons |rows |cuts |sepa|confs|strbr|  dualbound   | primalbound  |  gap   | compl. 
  0.2s|     1 |     0 |    67 |     - |  4607k |   0 |1264 |  56 |  56 |   0 |  0 |   0 |   0 |-2.330000e+02 | 1.100000e+01 |    Inf | unknown
 time | node  | left  |LP iter|LP it/n|mem/heur|mdpt |vars |cons |rows |cuts |sepa|confs|strbr|  dualbound   | primalbound  |  gap   | compl. 
  6.3s|     1 |     0 |   692 |     - |  7581k |   0 |2484 |  56 |  56 |   0 |  0 |   0 |   0 | 9.000000e+00 | 1.100000e+01 |  22.22%| unknown
 time | node  | left  |LP iter|LP it/n|mem/heur|mdpt |vars |cons |rows |cuts |sepa|confs|strbr|  dualbound   | primalbound  |  gap   | compl. 
o 6.4s|     1 |     0 |  1281 |     - |feaspump|   0 |2484 |  56 |  56 |   0 |  0 |   0 |   0 | 9.000000e+00 | 1.000000e+01 |  11.11%| unknown
 time | node  | left  |LP iter|LP it/n|mem/heur|mdpt |vars |cons |rows |cuts |sepa|confs|strbr|  dualbound   | primalbound  |  gap   | compl. 
  6.5s|     1 |     2 |  1281 |     - |  8290k |   0 |2484 |  56 |  56 |   0 |  1 |   0 |   0 | 9.000000e+00 | 1.000000e+01 |  11.11%| unknown
 time | node  | left  |LP iter|LP it/n|mem/heur|mdpt |vars |cons |rows |cuts |sepa|confs|strbr|  dualbound   | primalbound  |  gap   | compl. 
  6.5s|     2 |     3 |  1282 |   1.0 |  8381k |   1 |2484 |  56 |  56 |   0 |  1 |   0 |   0 | 9.000000e+00 | 1.000000e+01 |  11.11%| unknown
 time | node  | left  |LP iter|LP it/n|mem/heur|mdpt |vars |cons |rows |cuts |sepa|confs|strbr|  dualbound   | primalbound  |  gap   | compl. 
  6.5s|     3 |     4 |  1340 |  29.5 |  8453k |   2 |2484 |  56 |  56 |   0 |  1 |   0 |   0 | 9.000000e+00 | 1.000000e+01 |  11.11%| unknown
 time | node  | left  |LP iter|LP it/n|mem/heur|mdpt |vars |cons |rows |cuts |sepa|confs|strbr|  dualbound   | primalbound  |  gap   | compl. 
  6.5s|     4 |     5 |  1390 |  36.3 |  8601k |   3 |2484 |  56 |  56 |   0 |  1 |   0 |   0 | 9.000000e+00 | 1.000000e+01 |  11.11%| unknown
 time | node  | left  |LP iter|LP it/n|mem/heur|mdpt |vars |cons |rows |cuts |sepa|confs|strbr|  dualbound   | primalbound  |  gap   | compl. 
  6.5s|     5 |     6 |  1397 |  29.0 |  8609k |   4 |2484 |  56 |  56 |   0 |  1 |   0 |   0 | 9.000000e+00 | 1.000000e+01 |  11.11%| unknown
 time | node  | left  |LP iter|LP it/n|mem/heur|mdpt |vars |cons |rows |cuts |sepa|confs|strbr|  dualbound   | primalbound  |  gap   | compl. 
  6.7s|     6 |     7 |  1516 |  47.0 |  9070k |   4 |2484 |  56 |  56 |   0 |  1 |   0 |   0 | 9.000000e+00 | 1.000000e+01 |  11.11%| unknown
 time | node  | left  |LP iter|LP it/n|mem/heur|mdpt |vars |cons |rows |cuts |sepa|confs|strbr|  dualbound   | primalbound  |  gap   | compl. 
  6.7s|     7 |     8 |  1541 |  43.3 |  9102k |   5 |2484 |  56 |  56 |   0 |  1 |   0 |   0 | 9.000000e+00 | 1.000000e+01 |  11.11%| unknown
 time | node  | left  |LP iter|LP it/n|mem/heur|mdpt |vars |cons |rows |cuts |sepa|confs|strbr|  dualbound   | primalbound  |  gap   | compl. 
  6.9s|     8 |     9 |  1558 |  39.6 |  9105k |   5 |2484 |  56 |  56 |   0 |  1 |   0 |   0 | 9.000000e+00 | 1.000000e+01 |  11.11%| unknown
 time | node  | left  |LP iter|LP it/n|mem/heur|mdpt |vars |cons |rows |cuts |sepa|confs|strbr|  dualbound   | primalbound  |  gap   | compl. 
  7.1s|     9 |    10 |  1569 |  36.0 |  9118k |   6 |2484 |  56 |  56 |   0 |  1 |   0 |   0 | 9.000000e+00 | 1.000000e+01 |  11.11%| unknown
 time | node  | left  |LP iter|LP it/n|mem/heur|mdpt |vars |cons |rows |cuts |sepa|confs|strbr|  dualbound   | primalbound  |  gap   | compl. 
  7.2s|    10 |    11 |  1601 |  35.6 |  9124k |   7 |2484 |  56 |  56 |   0 |  1 |   0 |   0 | 9.000000e+00 | 1.000000e+01 |  11.11%| unknown
 time | node  | left  |LP iter|LP it/n|mem/heur|mdpt |vars |cons |rows |cuts |sepa|confs|strbr|  dualbound   | primalbound  |  gap   | compl. 
  7.4s|    11 |    12 |  1620 |  33.9 |  9124k |   8 |2484 |  56 |  56 |   0 |  1 |   0 |   0 | 9.000000e+00 | 1.000000e+01 |  11.11%| unknown
 time | node  | left  |LP iter|LP it/n|mem/heur|mdpt |vars |cons |rows |cuts |sepa|confs|strbr|  dualbound   | primalbound  |  gap   | compl. 
  7.5s|    12 |    13 |  1655 |  34.0 |  9127k |   9 |2484 |  56 |  56 |   0 |  1 |   0 |   0 | 9.000000e+00 | 1.000000e+01 |  11.11%| unknown
 time | node  | left  |LP iter|LP it/n|mem/heur|mdpt |vars |cons |rows |cuts |sepa|confs|strbr|  dualbound   | primalbound  |  gap   | compl. 
  7.7s|    13 |    14 |  1708 |  35.6 |  9127k |  10 |2484 |  56 |  56 |   0 |  1 |   0 |   0 | 9.000000e+00 | 1.000000e+01 |  11.11%| unknown
 time | node  | left  |LP iter|LP it/n|mem/heur|mdpt |vars |cons |rows |cuts |sepa|confs|strbr|  dualbound   | primalbound  |  gap   | compl. 
  8.0s|    14 |    15 |  2178 |  69.0 |    11M |  11 |2775 |  56 |  56 |   0 |  1 |   0 |   0 | 9.000000e+00 | 1.000000e+01 |  11.11%| unknown
 time | node  | left  |LP iter|LP it/n|mem/heur|mdpt |vars |cons |rows |cuts |sepa|confs|strbr|  dualbound   | primalbound  |  gap   | compl. 
  8.2s|    15 |    16 |  2229 |  67.7 |    11M |  11 |2775 |  56 |  56 |   0 |  1 |   0 |   0 | 9.000000e+00 | 1.000000e+01 |  11.11%| unknown
 time | node  | left  |LP iter|LP it/n|mem/heur|mdpt |vars |cons |rows |cuts |sepa|confs|strbr|  dualbound   | primalbound  |  gap   | compl. 
  8.4s|    16 |    17 |  2242 |  64.1 |    11M |  11 |2775 |  56 |  56 |   0 |  1 |   0 |   0 | 9.000000e+00 | 1.000000e+01 |  11.11%| unknown
 time | node  | left  |LP iter|LP it/n|mem/heur|mdpt |vars |cons |rows |cuts |sepa|confs|strbr|  dualbound   | primalbound  |  gap   | compl. 
  8.6s|    17 |    18 |  2266 |  61.6 |    11M |  12 |2775 |  56 |  56 |   0 |  1 |   0 |   0 | 9.000000e+00 | 1.000000e+01 |  11.11%| unknown
 time | node  | left  |LP iter|LP it/n|mem/heur|mdpt |vars |cons |rows |cuts |sepa|confs|strbr|  dualbound   | primalbound  |  gap   | compl. 
  8.8s|    18 |    19 |  2358 |  63.4 |    11M |  13 |2775 |  56 |  56 |   0 |  1 |   0 |   0 | 9.000000e+00 | 1.000000e+01 |  11.11%| unknown
 time | node  | left  |LP iter|LP it/n|mem/heur|mdpt |vars |cons |rows |cuts |sepa|confs|strbr|  dualbound   | primalbound  |  gap   | compl. 
  9.1s|    19 |    20 |  2401 |  62.2 |    11M |  13 |2775 |  56 |  56 |   0 |  1 |   0 |   0 | 9.000000e+00 | 1.000000e+01 |  11.11%| unknown
 time | node  | left  |LP iter|LP it/n|mem/heur|mdpt |vars |cons |rows |cuts |sepa|confs|strbr|  dualbound   | primalbound  |  gap   | compl. 
  9.3s|    20 |    21 |  2443 |  61.2 |    11M |  13 |2775 |  56 |  56 |   0 |  1 |   0 |   0 | 9.000000e+00 | 1.000000e+01 |  11.11%| unknown
 time | node  | left  |LP iter|LP it/n|mem/heur|mdpt |vars |cons |rows |cuts |sepa|confs|strbr|  dualbound   | primalbound  |  gap   | compl. 
  9.6s|    21 |    22 |  2578 |  64.8 |    11M |  14 |2775 |  56 |  56 |   0 |  1 |   0 |   0 | 9.000000e+00 | 1.000000e+01 |  11.11%| unknown
 time | node  | left  |LP iter|LP it/n|mem/heur|mdpt |vars |cons |rows |cuts |sepa|confs|strbr|  dualbound   | primalbound  |  gap   | compl. 
  9.8s|    22 |    23 |  2601 |  62.9 |    11M |  14 |2775 |  56 |  56 |   0 |  1 |   0 |   0 | 9.000000e+00 | 1.000000e+01 |  11.11%| unknown
 time | node  | left  |LP iter|LP it/n|mem/heur|mdpt |vars |cons |rows |cuts |sepa|confs|strbr|  dualbound   | primalbound  |  gap   | compl. 
 10.1s|    23 |    24 |  2604 |  60.1 |    11M |  15 |2775 |  56 |  56 |   0 |  1 |   0 |   0 | 9.000000e+00 | 1.000000e+01 |  11.11%| unknown
 time | node  | left  |LP iter|LP it/n|mem/heur|mdpt |vars |cons |rows |cuts |sepa|confs|strbr|  dualbound   | primalbound  |  gap   | compl. 
 10.3s|    24 |    25 |  2621 |  58.3 |    11M |  16 |2775 |  56 |  56 |   0 |  1 |   0 |   0 | 9.000000e+00 | 1.000000e+01 |  11.11%| unknown
 time | node  | left  |LP iter|LP it/n|mem/heur|mdpt |vars |cons |rows |cuts |sepa|confs|strbr|  dualbound   | primalbound  |  gap   | compl. 
 10.5s|    25 |    26 |  2624 |  56.0 |    11M |  17 |2775 |  56 |  56 |   0 |  1 |   0 |   0 | 9.000000e+00 | 1.000000e+01 |  11.11%| unknown
 time | node  | left  |LP iter|LP it/n|mem/heur|mdpt |vars |cons |rows |cuts |sepa|confs|strbr|  dualbound   | primalbound  |  gap   | compl. 
 10.8s|    26 |    27 |  2766 |  59.4 |    12M |  18 |2955 |  56 |  56 |   0 |  1 |   0 |   0 | 9.000000e+00 | 1.000000e+01 |  11.11%| unknown
 time | node  | left  |LP iter|LP it/n|mem/heur|mdpt |vars |cons |rows |cuts |sepa|confs|strbr|  dualbound   | primalbound  |  gap   | compl. 
 11.1s|    27 |    28 |  2998 |  66.0 |    12M |  19 |2955 |  56 |  56 |   0 |  1 |   0 |   0 | 9.000000e+00 | 1.000000e+01 |  11.11%| unknown
 time | node  | left  |LP iter|LP it/n|mem/heur|mdpt |vars |cons |rows |cuts |sepa|confs|strbr|  dualbound   | primalbound  |  gap   | compl. 
 11.4s|    28 |    29 |  3076 |  66.5 |    12M |  19 |2955 |  56 |  56 |   0 |  1 |   0 |   0 | 9.000000e+00 | 1.000000e+01 |  11.11%| unknown
 time | node  | left  |LP iter|LP it/n|mem/heur|mdpt |vars |cons |rows |cuts |sepa|confs|strbr|  dualbound   | primalbound  |  gap   | compl. 
 11.7s|    29 |    30 |  3227 |  69.5 |    13M |  19 |3080 |  56 |  56 |   0 |  1 |   0 |   0 | 9.000000e+00 | 1.000000e+01 |  11.11%| unknown
 time | node  | left  |LP iter|LP it/n|mem/heur|mdpt |vars |cons |rows |cuts |sepa|confs|strbr|  dualbound   | primalbound  |  gap   | compl. 
 12.1s|    30 |    31 |  3317 |  70.2 |    13M |  19 |3080 |  56 |  56 |   0 |  1 |   0 |   0 | 9.000000e+00 | 1.000000e+01 |  11.11%| unknown
 time | node  | left  |LP iter|LP it/n|mem/heur|mdpt |vars |cons |rows |cuts |sepa|confs|strbr|  dualbound   | primalbound  |  gap   | compl. 
 12.4s|    31 |    32 |  3349 |  68.9 |    13M |  19 |3080 |  56 |  56 |   0 |  1 |   0 |   0 | 9.000000e+00 | 1.000000e+01 |  11.11%| unknown
 time | node  | left  |LP iter|LP it/n|mem/heur|mdpt |vars |cons |rows |cuts |sepa|confs|strbr|  dualbound   | primalbound  |  gap   | compl. 
 12.8s|    32 |    33 |  3596 |  74.7 |    13M |  19 |3268 |  56 |  56 |   0 |  1 |   0 |   0 | 9.000000e+00 | 1.000000e+01 |  11.11%| unknown
 time | node  | left  |LP iter|LP it/n|mem/heur|mdpt |vars |cons |rows |cuts |sepa|confs|strbr|  dualbound   | primalbound  |  gap   | compl. 
 13.2s|    33 |    34 |  3674 |  74.8 |    13M |  19 |3268 |  56 |  56 |   0 |  1 |   0 |   0 | 9.000000e+00 | 1.000000e+01 |  11.11%| unknown
 time | node  | left  |LP iter|LP it/n|mem/heur|mdpt |vars |cons |rows |cuts |sepa|confs|strbr|  dualbound   | primalbound  |  gap   | compl. 
 13.6s|    34 |    35 |  3790 |  76.0 |    13M |  19 |3268 |  56 |  56 |   0 |  1 |   0 |   0 | 9.000000e+00 | 1.000000e+01 |  11.11%| unknown
 time | node  | left  |LP iter|LP it/n|mem/heur|mdpt |vars |cons |rows |cuts |sepa|confs|strbr|  dualbound   | primalbound  |  gap   | compl. 
 14.0s|    35 |    36 |  3894 |  76.9 |    13M |  19 |3268 |  56 |  56 |   0 |  1 |   0 |   0 | 9.000000e+00 | 1.000000e+01 |  11.11%| unknown
 time | node  | left  |LP iter|LP it/n|mem/heur|mdpt |vars |cons |rows |cuts |sepa|confs|strbr|  dualbound   | primalbound  |  gap   | compl. 
 14.3s|    36 |    37 |  3923 |  75.5 |    13M |  19 |3268 |  56 |  56 |   0 |  1 |   0 |   0 | 9.000000e+00 | 1.000000e+01 |  11.11%| unknown
 time | node  | left  |LP iter|LP it/n|mem/heur|mdpt |vars |cons |rows |cuts |sepa|confs|strbr|  dualbound   | primalbound  |  gap   | compl. 
 14.7s|    37 |    38 |  4078 |  77.7 |    13M |  19 |3268 |  56 |  56 |   0 |  1 |   0 |   0 | 9.000000e+00 | 1.000000e+01 |  11.11%| unknown
 time | node  | left  |LP iter|LP it/n|mem/heur|mdpt |vars |cons |rows |cuts |sepa|confs|strbr|  dualbound   | primalbound  |  gap   | compl. 
 15.0s|    38 |    39 |  4251 |  80.3 |    13M |  19 |3268 |  56 |  56 |   0 |  1 |   0 |   0 | 9.000000e+00 | 1.000000e+01 |  11.11%| unknown
 time | node  | left  |LP iter|LP it/n|mem/heur|mdpt |vars |cons |rows |cuts |sepa|confs|strbr|  dualbound   | primalbound  |  gap   | compl. 
 15.3s|    39 |    40 |  4370 |  81.3 |    13M |  19 |3268 |  56 |  56 |   0 |  1 |   0 |   0 | 9.000000e+00 | 1.000000e+01 |  11.11%| unknown
 time | node  | left  |LP iter|LP it/n|mem/heur|mdpt |vars |cons |rows |cuts |sepa|confs|strbr|  dualbound   | primalbound  |  gap   | compl. 
 15.5s|    40 |    41 |  4393 |  79.8 |    13M |  19 |3268 |  56 |  56 |   0 |  1 |   0 |   0 | 9.000000e+00 | 1.000000e+01 |  11.11%| unknown
 time | node  | left  |LP iter|LP it/n|mem/heur|mdpt |vars |cons |rows |cuts |sepa|confs|strbr|  dualbound   | primalbound  |  gap   | compl. 
 15.8s|    41 |    42 |  4473 |  79.8 |    13M |  19 |3268 |  56 |  56 |   0 |  1 |   0 |   0 | 9.000000e+00 | 1.000000e+01 |  11.11%| unknown
 time | node  | left  |LP iter|LP it/n|mem/heur|mdpt |vars |cons |rows |cuts |sepa|confs|strbr|  dualbound   | primalbound  |  gap   | compl. 
 16.1s|    42 |    43 |  4532 |  79.3 |    13M |  19 |3268 |  56 |  56 |   0 |  1 |   0 |   0 | 9.000000e+00 | 1.000000e+01 |  11.11%| unknown
 time | node  | left  |LP iter|LP it/n|mem/heur|mdpt |vars |cons |rows |cuts |sepa|confs|strbr|  dualbound   | primalbound  |  gap   | compl. 
 16.5s|    43 |    44 |  4957 |  87.5 |    13M |  19 |3268 |  56 |  56 |   0 |  1 |   0 |   0 | 9.000000e+00 | 1.000000e+01 |  11.11%| unknown
 time | node  | left  |LP iter|LP it/n|mem/heur|mdpt |vars |cons |rows |cuts |sepa|confs|strbr|  dualbound   | primalbound  |  gap   | compl. 
 16.8s|    44 |    45 |  5055 |  87.8 |    13M |  19 |3268 |  56 |  56 |   0 |  1 |   0 |   0 | 9.000000e+00 | 1.000000e+01 |  11.11%| unknown
 time | node  | left  |LP iter|LP it/n|mem/heur|mdpt |vars |cons |rows |cuts |sepa|confs|strbr|  dualbound   | primalbound  |  gap   | compl. 
 17.2s|    45 |    46 |  5115 |  87.1 |    13M |  19 |3268 |  56 |  56 |   0 |  1 |   0 |   0 | 9.000000e+00 | 1.000000e+01 |  11.11%| unknown
 time | node  | left  |LP iter|LP it/n|mem/heur|mdpt |vars |cons |rows |cuts |sepa|confs|strbr|  dualbound   | primalbound  |  gap   | compl. 
 17.5s|    46 |    47 |  5124 |  85.4 |    13M |  19 |3268 |  56 |  56 |   0 |  1 |   0 |   0 | 9.000000e+00 | 1.000000e+01 |  11.11%| unknown
 time | node  | left  |LP iter|LP it/n|mem/heur|mdpt |vars |cons |rows |cuts |sepa|confs|strbr|  dualbound   | primalbound  |  gap   | compl. 
 17.9s|    47 |    48 |  5160 |  84.3 |    13M |  19 |3268 |  56 |  56 |   0 |  1 |   0 |   0 | 9.000000e+00 | 1.000000e+01 |  11.11%| unknown
 time | node  | left  |LP iter|LP it/n|mem/heur|mdpt |vars |cons |rows |cuts |sepa|confs|strbr|  dualbound   | primalbound  |  gap   | compl. 
 18.2s|    48 |    49 |  5238 |  84.2 |    13M |  19 |3268 |  56 |  56 |   0 |  1 |   0 |   0 | 9.000000e+00 | 1.000000e+01 |  11.11%| unknown
 time | node  | left  |LP iter|LP it/n|mem/heur|mdpt |vars |cons |rows |cuts |sepa|confs|strbr|  dualbound   | primalbound  |  gap   | compl. 
 18.6s|    49 |    50 |  5509 |  88.1 |    13M |  19 |3268 |  56 |  56 |   0 |  1 |   0 |   0 | 9.000000e+00 | 1.000000e+01 |  11.11%| unknown
 time | node  | left  |LP iter|LP it/n|mem/heur|mdpt |vars |cons |rows |cuts |sepa|confs|strbr|  dualbound   | primalbound  |  gap   | compl. 
 18.9s|    50 |    51 |  5582 |  87.8 |    13M |  19 |3268 |  56 |  56 |   0 |  1 |   0 |   0 | 9.000000e+00 | 1.000000e+01 |  11.11%| unknown
 time | node  | left  |LP iter|LP it/n|mem/heur|mdpt |vars |cons |rows |cuts |sepa|confs|strbr|  dualbound   | primalbound  |  gap   | compl. 
 19.2s|    51 |    52 |  5589 |  86.2 |    13M |  19 |3268 |  56 |  56 |   0 |  1 |   0 |   0 | 9.000000e+00 | 1.000000e+01 |  11.11%| unknown
 time | node  | left  |LP iter|LP it/n|mem/heur|mdpt |vars |cons |rows |cuts |sepa|confs|strbr|  dualbound   | primalbound  |  gap   | compl. 
 19.6s|    52 |    53 |  5904 |  90.6 |    13M |  19 |3351 |  56 |  56 |   0 |  1 |   0 |   0 | 9.000000e+00 | 1.000000e+01 |  11.11%| unknown
 time | node  | left  |LP iter|LP it/n|mem/heur|mdpt |vars |cons |rows |cuts |sepa|confs|strbr|  dualbound   | primalbound  |  gap   | compl. 
 19.9s|    53 |    54 |  5939 |  89.6 |    13M |  19 |3351 |  56 |  56 |   0 |  1 |   0 |   0 | 9.000000e+00 | 1.000000e+01 |  11.11%| unknown
 time | node  | left  |LP iter|LP it/n|mem/heur|mdpt |vars |cons |rows |cuts |sepa|confs|strbr|  dualbound   | primalbound  |  gap   | compl. 
r20.2s|    54 |     0 |  5948 |  88.1 |simplero|  19 |3351 |  56 |  56 |   0 |  0 |   0 |   0 | 9.000000e+00 | 9.000000e+00 |   0.00%| 100.00%

SCIP Status        : problem is solved [optimal solution found]
Solving Time (sec) : 20.23
Solving Nodes      : 54
Primal Bound       : +9.00000000000000e+00 (5 solutions)
Dual Bound         : +9.00000000000000e+00
Gap                : 0.00 %
Running with parallel: False bidir: True symbreak: True
Number of Nodes:  56
47.346483236151606% holds
starting cheapest insertion heuristic
Heuristic without TSP improvement:  11
Heuristic without TSP improvement time:  0.1
Heuristic Sol:  11
Heuristic total time:  0.2
[[9, 44, 50, 4, 29, 3], [7, 37, 18, 31, 48, 55, 41], [10, 49, 0, 36, 27, 14, 51], [20, 19, 6, 13, 30, 5, 15], [33, 26, 8, 21, 34, 52, 17, 32], [38, 54], [39, 45, 16, 47, 23, 28], [53, 2, 42, 22], [46, 11, 40], [43, 25, 35], [24, 1, 12]]
Instance path:  /home/htc/mghannam/SCRATCH/lccp-rust/data/at84_ftv55.npcc
Timelimit:  7200
Heuristic without TSP improvement:  11
Heuristic without TSP improvement time:  0.1
Heuristic Sol:  11
Heuristic total time:  0.6
at 1 zero_duals: 45
Switching to elementary pricing
at1, LP obj: 11.0 n_added_paths: 1197
updated lowerbound from -1e+20 to -233
at 1 zero_duals: 19
at1, LP obj: 11.0 n_added_paths: 426
at 1 zero_duals: 17
at1, LP obj: 9.999999999999998 n_added_paths: 549
at 1 zero_duals: 8
at1, LP obj: 8.79348216360065 n_added_paths: 131
at 1 zero_duals: 6
at1, LP obj: 8.39059294428953 n_added_paths: 60
at 1 zero_duals: 8
Switching to elementary pricing
at1, LP obj: 8.28199846187651 n_added_paths: 37
updated lowerbound from 1.0 to 8
at 1 zero_duals: 9
Switching to elementary pricing
at1, LP obj: 8.177142857142856 n_added_paths: 17
at 1 zero_duals: 9
Switching to elementary pricing
at1, LP obj: 8.171084337349397 n_added_paths: 0
updated lowerbound from 8.0 to 9
Gap too small = 0, stopping pricing with lb = 9
Gap too small = 0, stopping pricing with lb = 9
Gap too small = 0, stopping pricing with lb = 9
Gap too small = 0, stopping pricing with lb = 9
Gap too small = 0, stopping pricing with lb = 9
Gap too small = 0, stopping pricing with lb = 9
Gap too small = 0, stopping pricing with lb = 9
Gap too small = 0, stopping pricing with lb = 9
Gap too small = 0, stopping pricing with lb = 9
Gap too small = 0, stopping pricing with lb = 9
Gap too small = 0, stopping pricing with lb = 9
Gap too small = 0, stopping pricing with lb = 9
at 26 zero_duals: 15
at26, LP obj: 9.171511627906977 n_added_paths: 291
Gap too small = 0, stopping pricing with lb = 9
Gap too small = 0, stopping pricing with lb = 9
Gap too small = 0, stopping pricing with lb = 9
Gap too small = 0, stopping pricing with lb = 9
Gap too small = 0, stopping pricing with lb = 9
Gap too small = 0, stopping pricing with lb = 9
Gap too small = 0, stopping pricing with lb = 9
Gap too small = 0, stopping pricing with lb = 9
Gap too small = 0, stopping pricing with lb = 9
Gap too small = 0, stopping pricing with lb = 9
Gap too small = 0, stopping pricing with lb = 9
Gap too small = 0, stopping pricing with lb = 9
at 50 zero_duals: 10
at50, LP obj: 9.015873015873016 n_added_paths: 180
Gap too small = 0, stopping pricing with lb = 9
Gap too small = 0, stopping pricing with lb = 9
Gap too small = 0, stopping pricing with lb = 9
at 56 zero_duals: 12
at56, LP obj: 9.157360406091371 n_added_paths: 125
Gap too small = 0, stopping pricing with lb = 9
Gap too small = 0, stopping pricing with lb = 9
Gap too small = 0, stopping pricing with lb = 9
at 62 zero_duals: 7
at62, LP obj: 9.133802816901408 n_added_paths: 188
Gap too small = 0, stopping pricing with lb = 9
Gap too small = 0, stopping pricing with lb = 9
Gap too small = 0, stopping pricing with lb = 9
Gap too small = 0, stopping pricing with lb = 9
Gap too small = 0, stopping pricing with lb = 9
Gap too small = 0, stopping pricing with lb = 9
Gap too small = 0, stopping pricing with lb = 9
Gap too small = 0, stopping pricing with lb = 9
Gap too small = 0, stopping pricing with lb = 9
Gap too small = 0, stopping pricing with lb = 9
Gap too small = 0, stopping pricing with lb = 9
Gap too small = 0, stopping pricing with lb = 9
Gap too small = 0, stopping pricing with lb = 9
Gap too small = 0, stopping pricing with lb = 9
Gap too small = 0, stopping pricing with lb = 9
Gap too small = 0, stopping pricing with lb = 9
Gap too small = 0, stopping pricing with lb = 9
Gap too small = 0, stopping pricing with lb = 9
Gap too small = 0, stopping pricing with lb = 9
Gap too small = 0, stopping pricing with lb = 9
at 102 zero_duals: 10
at102, LP obj: 9.031331592689295 n_added_paths: 83
Gap too small = 0, stopping pricing with lb = 9
Gap too small = 0, stopping pricing with lb = 9
Best solution found:
[20, 15, 6, 19, 4, 10, 0, 20] 1.0 1.0
checking cycle [20, 15, 6, 19, 4, 10, 0, 20]
[20, 15, 6, 19, 4, 10, 0, 20] 339 336
[54, 22, 53, 42, 2, 54] 1.0 1.0
checking cycle [54, 22, 53, 42, 2, 54]
[54, 22, 53, 42, 2, 54] 225 202
[55, 48, 31, 38, 41, 55] 1.0 1.0
checking cycle [55, 48, 31, 38, 41, 55]
[55, 48, 31, 38, 41, 55] 219 171
[50, 29, 12, 24, 3, 9, 50] 1.0 1.0
checking cycle [50, 29, 12, 24, 3, 9, 50]
[50, 29, 12, 24, 3, 9, 50] 238 231
[46, 5, 13, 30, 11, 40, 46] 1.0 1.0
checking cycle [46, 5, 13, 30, 11, 40, 46]
[46, 5, 13, 30, 11, 40, 46] 250 232
[51, 39, 27, 14, 44, 23, 47, 16, 45, 51] 1.0 1.0
checking cycle [51, 39, 27, 14, 44, 23, 47, 16, 45, 51]
[51, 39, 27, 14, 44, 23, 47, 16, 45, 51] 236 227
[49, 21, 28, 36, 49] 1.0 1.0
checking cycle [49, 21, 28, 36, 49]
[49, 21, 28, 36, 49] 240 230
[52, 1, 34, 43, 26, 33, 32, 17, 52] 1.0 1.0
checking cycle [52, 1, 34, 43, 26, 33, 32, 17, 52]
[52, 1, 34, 43, 26, 33, 32, 17, 52] 232 218
[35, 25, 18, 37, 7, 8, 35] 1.0 1.0
checking cycle [35, 25, 18, 37, 7, 8, 35]
[35, 25, 18, 37, 7, 8, 35] 263 234
